[2026-03-23T16:02:42.575Z] Pipeline "set_exp_3_exp_3_n025_c005_g001" → 2026_03_23_16_02_42_set_exp_3_exp_3_n025_c005_g001_max.sol
Set parameter WLSAccessID
Set parameter WLSSecret
Set parameter LicenseID to value 2792458
Set parameter LogFile to value "gurobi.log"
Using license file /root/gurobi.lic
Academic license 2792458 - for non-commercial use only - registered to an___@studenti.unipg.it

Gurobi Optimizer version 13.0.1 build v13.0.1rc0 (linux64 - "Ubuntu 24.04.4 LTS")
Copyright (c) 2026, Gurobi Optimization, LLC

Warning: Duplicate section found (read 'binary') - Is a variable name equal to an LP file format keyword?
Warning: Duplicate section found (read 'binary') - Is a variable name equal to an LP file format keyword?
Warning: Duplicate section found (read 'binary') - Is a variable name equal to an LP file format keyword?
Warning: Duplicate section found (read 'binary') - Is a variable name equal to an LP file format keyword?
Warning: Duplicate section found (read 'binary') - Is a variable name equal to an LP file format keyword?
Warning: Duplicate section found (read 'binary') - Is a variable name equal to an LP file format keyword?
Warning: Duplicate section found (read 'binary') - Is a variable name equal to an LP file format keyword?
Warning: Duplicate section found (read 'binary') - Is a variable name equal to an LP file format keyword?
Warning: Duplicate section found (read 'binary') - Is a variable name equal to an LP file format keyword?
Warning: Duplicate section found (read 'binary') - Is a variable name equal to an LP file format keyword?
Warning: Further warnings of this type will be omitted.
Read LP format model from file /root/bgw/data/uploads/2026_03_23_16_02_42_set_exp_3_exp_3_n025_c005_g001_max.lp
Reading time = 0.01 seconds
: 5402 rows, 476 columns, 16000 nonzeros

Using Gurobi shared library /opt/gurobi1301/linux64/lib/libgurobi.so.13.0.1

CPU model: AMD EPYC-Genoa Processor, instruction set [SSE2|AVX|AVX2|AVX512]
Thread count: 16 physical cores, 16 logical processors, using up to 16 threads

Academic license 2792458 - for non-commercial use only - registered to an___@studenti.unipg.it
Optimize a model with 5402 rows, 476 columns and 16000 nonzeros (Max)
Model fingerprint: 0x6bc72e58
Model has 9 linear objective coefficients
Variable types: 34 continuous, 442 integer (442 binary)
Coefficient statistics:
  Matrix range     [1e+00, 3e+01]
  Objective range  [1e+00, 1e+00]
  Bounds range     [1e+00, 1e+00]
  RHS range        [1e+00, 3e+01]

Found heuristic solution: objective 9.0000000
Presolve removed 754 rows and 145 columns
Presolve time: 0.02s
Presolved: 4648 rows, 331 columns, 14252 nonzeros
Variable types: 0 continuous, 331 integer (317 binary)

Root relaxation: objective 3.900000e+01, 369 iterations, 0.02 seconds (0.03 work units)

    Nodes    |    Current Node    |     Objective Bounds      |     Work
 Expl Unexpl |  Obj  Depth IntInf | Incumbent    BestBd   Gap | It/Node Time

     0     0   39.00000    0   27    9.00000   39.00000   333%     -    0s
H    0     0                      22.0000000   39.00000  77.3%     -    0s
H    0     0                      25.0000000   39.00000  56.0%     -    0s
H    0     0                      26.0000000   39.00000  50.0%     -    0s
     0     0   39.00000    0   40   26.00000   39.00000  50.0%     -    0s
     0     0   39.00000    0   40   26.00000   39.00000  50.0%     -    0s
     0     0   39.00000    0   37   26.00000   39.00000  50.0%     -    0s
     0     0   39.00000    0   26   26.00000   39.00000  50.0%     -    0s
     0     0   39.00000    0   25   26.00000   39.00000  50.0%     -    0s
     0     0   39.00000    0   26   26.00000   39.00000  50.0%     -    0s
     0     0   39.00000    0   22   26.00000   39.00000  50.0%     -    0s
     0     0   39.00000    0   27   26.00000   39.00000  50.0%     -    0s
     0     0   39.00000    0   26   26.00000   39.00000  50.0%     -    0s
     0     0   39.00000    0   26   26.00000   39.00000  50.0%     -    0s
     0     0   39.00000    0   27   26.00000   39.00000  50.0%     -    0s
     0     0   39.00000    0   27   26.00000   39.00000  50.0%     -    0s
     0     0   39.00000    0   26   26.00000   39.00000  50.0%     -    0s
     0     0   39.00000    0   26   26.00000   39.00000  50.0%     -    0s
     0     0   39.00000    0   27   26.00000   39.00000  50.0%     -    0s
     0     0   39.00000    0   27   26.00000   39.00000  50.0%     -    0s
     0     0   39.00000    0   27   26.00000   39.00000  50.0%     -    0s
     0     0   39.00000    0   27   26.00000   39.00000  50.0%     -    0s
     0     2   39.00000    0   27   26.00000   39.00000  50.0%     -    0s

Cutting planes:
  Gomory: 12
  Cover: 11
  MIR: 12
  Inf proof: 86
  Zero half: 8
  Mod-K: 7

Explored 7422 nodes (406400 simplex iterations) in 3.39 seconds (5.33 work units)
Thread count was 16 (of 16 available processors)

Solution count 4: 26 25 22 9 

Optimal solution found (tolerance 1.00e-04)
Best objective 2.600000000000e+01, best bound 2.600000000000e+01, gap 0.0000%

Wrote result file '/root/bgw/data/results/2026_03_23_16_02_42_set_exp_3_exp_3_n025_c005_g001_max.sol'

